words_hard_train/6218.qaiger
aag 117 16 0 1 101
2
4
8
12
16
20
24
28
94
106
108
112
116
120
130
204
234
6 3 5
10 6 9
14 10 13
18 14 17
22 18 21
26 22 25
30 26 29
32 23 29
34 33 24
36 32 25
38 35 37
40 19 29
42 41 20
44 40 21
46 43 45
48 15 28
50 49 16
52 48 17
54 51 53
56 11 29
58 57 13
60 56 12
62 59 61
64 7 29
66 65 8
68 64 9
70 67 69
72 2 28
74 72 5
76 73 4
78 75 77
80 78 2
82 71 80
84 62 82
86 54 84
88 47 86
90 39 88
92 31 91
96 93 94
98 19 87
100 55 15
102 100 85
104 98 103
110 107 109
114 110 113
118 114 117
122 119 120
124 118 121
126 123 125
128 104 126
132 125 130
134 124 131
136 133 135
138 46 87
140 139 89
142 136 140
144 129 143
146 70 81
148 147 83
150 111 112
152 151 115
154 2 106
156 154 108
158 157 111
160 155 109
162 161 78
164 158 163
166 152 164
168 149 167
170 153 165
172 169 171
174 63 83
176 175 85
178 115 116
180 179 119
182 176 180
184 173 183
186 105 127
188 185 187
190 177 181
192 188 191
194 144 193
196 137 141
198 195 197
200 38 89
202 201 91
206 135 204
208 134 205
210 207 209
212 202 210
214 199 213
216 203 211
218 215 217
220 218 208
222 96 220
224 97 221
226 92 95
228 219 209
230 227 229
232 224 231
234 223 233
i0 1 x2[0]
i1 1 x2[1]
i2 1 x2[2]
i3 1 x2[3]
i4 1 x2[4]
i5 1 x2[5]
i6 1 x2[6]
i7 1 x2[7]
i8 2 y2[0]
i9 2 y2[7]
i10 2 y2[6]
i11 2 y2[5]
i12 2 y2[4]
i13 2 y2[3]
i14 2 y2[2]
i15 2 y2[1]
o0 bv[0]
c
simplified
  <=
    reverse
      2 y2
    subtract
      abs
        1
      abs
        1 x2
