words_hard_train/6218.qaiger.qdimacs
p cnf 117 304
a 1 2 4 6 8 10 12 14 0
e 3 5 7 9 11 13 15 16 17 18 19 20 21 22 23 24 25 26 27 28 29 30 31 32 33 34 35 36 37 38 39 40 41 42 43 44 45 46 47 48 49 50 51 52 53 54 55 56 57 58 59 60 61 62 63 64 65 66 67 68 69 70 71 72 73 74 75 76 77 78 79 80 81 82 83 84 85 86 87 88 89 90 91 92 93 94 95 96 97 98 99 100 101 102 103 104 105 106 107 108 109 110 111 112 113 114 115 116 117 0
1 2 3 0
-1 -3 0
-2 -3 0
-3 4 5 0
3 -5 0
-4 -5 0
-5 6 7 0
5 -7 0
-6 -7 0
-7 8 9 0
7 -9 0
-8 -9 0
-9 10 11 0
9 -11 0
-10 -11 0
-11 12 13 0
11 -13 0
-12 -13 0
-13 14 15 0
13 -15 0
-14 -15 0
11 14 16 0
-11 -16 0
-14 -16 0
16 -12 17 0
-16 -17 0
12 -17 0
-16 12 18 0
16 -18 0
-12 -18 0
17 18 19 0
-17 -19 0
-18 -19 0
9 14 20 0
-9 -20 0
-14 -20 0
20 -10 21 0
-20 -21 0
10 -21 0
-20 10 22 0
20 -22 0
-10 -22 0
21 22 23 0
-21 -23 0
-22 -23 0
7 -14 24 0
-7 -24 0
14 -24 0
24 -8 25 0
-24 -25 0
8 -25 0
-24 8 26 0
24 -26 0
-8 -26 0
25 26 27 0
-25 -27 0
-26 -27 0
5 14 28 0
-5 -28 0
-14 -28 0
28 6 29 0
-28 -29 0
-6 -29 0
-28 -6 30 0
28 -30 0
6 -30 0
29 30 31 0
-29 -31 0
-30 -31 0
3 14 32 0
-3 -32 0
-14 -32 0
32 -4 33 0
-32 -33 0
4 -33 0
-32 4 34 0
32 -34 0
-4 -34 0
33 34 35 0
-33 -35 0
-34 -35 0
-1 -14 36 0
1 -36 0
14 -36 0
-36 2 37 0
36 -37 0
-2 -37 0
36 -2 38 0
-36 -38 0
2 -38 0
37 38 39 0
-37 -39 0
-38 -39 0
-39 -1 40 0
39 -40 0
1 -40 0
35 -40 41 0
-35 -41 0
40 -41 0
-31 -41 42 0
31 -42 0
41 -42 0
-27 -42 43 0
27 -43 0
42 -43 0
23 -43 44 0
-23 -44 0
43 -44 0
19 -44 45 0
-19 -45 0
44 -45 0
15 45 46 0
-15 -46 0
-45 -46 0
46 -47 48 0
-46 -48 0
47 -48 0
9 43 49 0
-9 -49 0
-43 -49 0
27 7 50 0
-27 -50 0
-7 -50 0
-50 42 51 0
50 -51 0
-42 -51 0
-49 51 52 0
49 -52 0
-51 -52 0
53 54 55 0
-53 -55 0
-54 -55 0
-55 56 57 0
55 -57 0
-56 -57 0
-57 58 59 0
57 -59 0
-58 -59 0
59 -60 61 0
-59 -61 0
60 -61 0
-59 60 62 0
59 -62 0
-60 -62 0
61 62 63 0
-61 -63 0
-62 -63 0
-52 -63 64 0
52 -64 0
63 -64 0
62 -65 66 0
-62 -66 0
65 -66 0
-62 65 67 0
62 -67 0
-65 -67 0
66 67 68 0
-66 -68 0
-67 -68 0
-23 43 69 0
23 -69 0
-43 -69 0
69 44 70 0
-69 -70 0
-44 -70 0
-68 -70 71 0
68 -71 0
70 -71 0
64 71 72 0
-64 -72 0
-71 -72 0
-35 40 73 0
35 -73 0
-40 -73 0
73 41 74 0
-73 -74 0
-41 -74 0
55 -56 75 0
-55 -75 0
56 -75 0
75 57 76 0
-75 -76 0
-57 -76 0
-1 -53 77 0
1 -77 0
53 -77 0
-77 -54 78 0
77 -78 0
54 -78 0
78 55 79 0
-78 -79 0
-55 -79 0
77 54 80 0
-77 -80 0
-54 -80 0
80 -39 81 0
-80 -81 0
39 -81 0
-79 81 82 0
79 -82 0
-81 -82 0
-76 -82 83 0
76 -83 0
82 -83 0
74 83 84 0
-74 -84 0
-83 -84 0
76 82 85 0
-76 -85 0
-82 -85 0
84 85 86 0
-84 -86 0
-85 -86 0
31 41 87 0
-31 -87 0
-41 -87 0
87 42 88 0
-87 -88 0
-42 -88 0
57 -58 89 0
-57 -89 0
58 -89 0
89 59 90 0
-89 -90 0
-59 -90 0
-88 -90 91 0
88 -91 0
90 -91 0
86 91 92 0
-86 -92 0
-91 -92 0
52 63 93 0
-52 -93 0
-63 -93 0
92 93 94 0
-92 -94 0
-93 -94 0
88 90 95 0
-88 -95 0
-90 -95 0
-94 95 96 0
94 -96 0
-95 -96 0
-72 96 97 0
72 -97 0
-96 -97 0
68 70 98 0
-68 -98 0
-70 -98 0
97 98 99 0
-97 -99 0
-98 -99 0
-19 44 100 0
19 -100 0
-44 -100 0
100 45 101 0
-100 -101 0
-45 -101 0
67 -102 103 0
-67 -103 0
102 -103 0
-67 102 104 0
67 -104 0
-102 -104 0
103 104 105 0
-103 -105 0
-104 -105 0
-101 -105 106 0
101 -106 0
105 -106 0
99 106 107 0
-99 -107 0
-106 -107 0
101 105 108 0
-101 -108 0
-105 -108 0
107 108 109 0
-107 -109 0
-108 -109 0
-109 -104 110 0
109 -110 0
104 -110 0
-48 -110 111 0
48 -111 0
110 -111 0
48 110 112 0
-48 -112 0
-110 -112 0
-46 47 113 0
46 -113 0
-47 -113 0
109 104 114 0
-109 -114 0
-104 -114 0
113 114 115 0
-113 -115 0
-114 -115 0
-112 115 116 0
112 -116 0
-115 -116 0
111 116 117 0
-111 -117 0
-116 -117 0
117 0
